HUN,8,6,613
3,12,2,3,1,19,4,21,5,5,0,23
5,4,2,11,4,29,0,7,3,11,1,12
2,21,0,18,1,18,4,20,3,13,5,12
5,29,2,9,0,3,4,24,3,18,1,16
4,4,0,14,3,11,5,12,1,18,2,15
5,19,4,7,0,10,3,14,1,22,2,18
2,29,3,19,5,23,1,24,4,6,0,12
1,13,4,7,0,19,2,5,5,1,3,24
